column=12;
row=12;
Board=[|0,0,5,11,0,0,4,0,0,0,0,0|5,12,0,0,0,0,0,8,0,0,0,2|0,0,0,10,7,0,0,4,0,1,0,6|7,9,0,2,0,6,0,12,10,0,0,0|1,0,12,0,0,11,0,0,0,0,0,0|11,0,0,0,0,0,8,0,3,0,0,0|0,8,9,4,12,7,0,0,0,0,0,0|0,0,6,7,1,0,11,0,9,0,0,12|0,0,0,0,0,0,0,0,0,0,0,0|0,0,2,0,4,9,0,6,7,0,5,0|0,0,0,5,6,0,0,0,0,0,0,3|0,0,0,8,0,0,0,5,1,11,0,0|];
horizontal=[|0,1,0,1,0,0,0,1,0,0,0|0,0,1,0,1,0,0,0,0,0,1|0,0,1,0,0,0,0,0,0,1,0|0,0,1,0,0,1,0,0,0,1,0|1,0,0,0,0,1,1,0,1,0,0|1,0,0,1,0,0,1,0,0,0,0|0,1,0,0,0,0,0,0,0,0,1|0,0,1,0,0,0,1,1,0,0,0|0,0,0,0,0,1,0,0,0,0,1|1,0,1,0,0,0,0,1,1,0,0|0,0,0,1,0,0,0,0,0,1,0|0,0,0,0,0,0,0,0,0,0,0|];
vertical=[|0,0,0,0,0,0,0,0,0,0,0,0|0,0,1,1,0,1,0,0,1,0,1,0|1,0,0,0,0,0,0,0,0,0,1,0|0,0,0,1,0,0,0,0,0,1,0,0|0,0,0,0,0,0,0,0,0,0,0,0|0,0,0,0,0,0,0,0,0,0,0,0|0,0,0,0,0,0,0,0,0,1,0,1|0,1,1,0,0,0,0,1,1,0,0,0|0,0,0,0,0,0,1,0,1,0,1,0|0,0,0,0,0,0,0,0,0,0,0,0|0,0,0,0,0,0,0,0,0,1,0,0|];
